# Solution for model GasLib-40
# Objective value = 1.2305902294650165e+01
loadshed[innode_1] 0
loadshed[innode_2] 0
loadshed[innode_3] 0
loadshed[innode_4] 0
loadshed[innode_5] 0
loadshed[innode_6] 0
loadshed[innode_7] 0
loadshed[innode_8] 0
loadshed[source_1] -1.5540753580251265e-01
loadshed[source_2] 0.00954227303472055
loadshed[source_3] 2.2370624367833747e-01
loadshed[sink_1] 0
loadshed[sink_2] 0
loadshed[sink_3] 0
loadshed[sink_4] 0
loadshed[sink_5] 0
loadshed[sink_6] 0
loadshed[sink_7] 0
loadshed[sink_8] 0
loadshed[sink_9] 0
loadshed[sink_10] 0
loadshed[sink_11] 0
loadshed[sink_12] 7.5246281546905469e-01
loadshed[sink_13] 0
loadshed[sink_14] 0
loadshed[sink_15] 0
loadshed[sink_16] 0
loadshed[sink_17] 0
loadshed[sink_18] 0
loadshed[sink_19] 0
loadshed[sink_20] 0
loadshed[sink_21] 0
loadshed[sink_22] 0
loadshed[sink_23] 0
loadshed[sink_24] 0
loadshed[sink_25] 0
loadshed[sink_26] 0
loadshed[sink_27] 0
loadshed[sink_28] 0
loadshed[sink_29] 0
flow[source_1,sink_3] 1.8265869828155695e+02
flow[innode_1,sink_16] 1.6354166666666970e+01
flow[innode_6,sink_13] -8.2453289073794878e+00
flow[sink_13,sink_14] -2.4599495574046156e+01
flow[sink_14,sink_10] -4.0953662240712823e+01
flow[sink_25,sink_26] 1.6758993103868420e+02
flow[sink_26,sink_9] 1.5123576437201729e+02
flow[sink_9,sink_18] 1.3488159770535063e+02
flow[sink_26,sink_4] 0
flow[sink_4,sink_20] -4.9062500000001677e+01
flow[sink_18,sink_6] 1.1852743103868397e+02
flow[sink_25,innode_8] -1.4995036494822057e+02
flow[sink_6,sink_7] 6.9464931038683517e+01
flow[sink_6,sink_22] 3.2708333333333641e+01
flow[sink_7,sink_24] 3.6756597705349840e+01
flow[sink_22,sink_1] 1.6354166666666970e+01
flow[sink_24,sink_21] 2.0402431038683169e+01
flow[sink_21,sink_12] 4.0482643720165008e+00
flow[sink_7,sink_5] 1.6354166666667368e+01
flow[sink_5,sink_17] 0
flow[sink_17,sink_4] -3.2708333333335005e+01
flow[sink_17,sink_8] 1.6354166666668334e+01
flow[sink_3,sink_23] 16.3541666666697
flow[sink_8,sink_20] 0
flow[sink_25,sink_20] 6.5416666666666671e+01
flow[sink_25,sink_15] -9.1165070516419490e+01
flow[sink_15,sink_29] -6.0264479228200855e+01
flow[sink_29,sink_28] 1.6354166666667879e+01
flow[sink_29,sink_2] 6.3608924621551978e+01
flow[sink_2,sink_15] 4.7254757954885307e+01
flow[sink_29,innode_7] -1.5658173718308740e+02
flow[innode_4,sink_19] 4.7719664558211065e+01
flow[sink_19,innode_3] 4.3927507215454014e+01
flow[innode_4,innode_5] 75.0048310158351
flow[sink_27,innode_5] -75.0048310158351
flow[sink_27,sink_19] 5.8650664349168430e+01
flow[sink_10,sink_11] 3.2708333333333641e+01
flow[sink_10,innode_2] -4.6088655025259115e+01
flow[sink_10,innode_3] -4.3927507215454014e+01
flow[innode_6,sink_25] 8.2453289073794878e+00
flow[sink_11,innode_1] 1.6354166666666970e+01
flow[sink_19,innode_2] 4.6088655025259115e+01
flow[source_3,innode_4] 1.2272449557404616e+02
flow[source_2,innode_7] 1.5658173718308740e+02
flow[sink_3,innode_8] 1.4995036494822057e+02
pressure[innode_1] 76.4923277202805
pressure[innode_2] 7.9080004798348568e+01
pressure[innode_3] 7.8982732307870492e+01
pressure[innode_4] 81.01325
pressure[innode_5] 8.0961657722210319e+01
pressure[innode_6] 7.4617500295731958e+01
pressure[innode_7] 81.01325
pressure[innode_8] 8.0402691749796674e+01
pressure[source_1] 81.01325
pressure[source_2] 81.01325
pressure[source_3] 81.01325
pressure[sink_1] 4.3615857903418018e+01
pressure[sink_2] 7.5214016090913645e+01
pressure[sink_3] 8.0402691749796674e+01
pressure[sink_4] 5.5422913854894027e+01
pressure[sink_5] 3.7961777563084496e+01
pressure[sink_6] 4.5716935513805389e+01
pressure[sink_7] 4.4763347589979212e+01
pressure[sink_8] 5.3555824011875643e+01
pressure[sink_9] 5.3762389046357541e+01
pressure[sink_10] 7.6644029027884045e+01
pressure[sink_11] 76.4923277202805
pressure[sink_12] 1.01325
pressure[sink_13] 7.4662955416075874e+01
pressure[sink_14] 7.4706978308819330e+01
pressure[sink_15] 7.5059739720971848e+01
pressure[sink_16] 7.5470677885462820e+01
pressure[sink_17] 5.4172909207289266e+01
pressure[sink_18] 4.8881970825077737e+01
pressure[sink_19] 7.9080004798348568e+01
pressure[sink_20] 5.9022366983068522e+01
pressure[sink_21] 2.4538440259355849e+00
pressure[sink_22] 4.4679627045773024e+01
pressure[sink_23] 8.0237973738136887e+01
pressure[sink_24] 2.6797819935698151e+00
pressure[sink_25] 7.4617500295731958e+01
pressure[sink_26] 6.2814239872785954e+01
pressure[sink_27] 8.0339256218804422e+01
pressure[sink_28] 7.6530019664985915e+01
pressure[sink_29] 7.6825301938603090e+01
interdiction[source_1,sink_3] 0
interdiction[innode_1,sink_16] 0
interdiction[innode_6,sink_13] 0
interdiction[sink_13,sink_14] 0
interdiction[sink_14,sink_10] 0
interdiction[sink_25,sink_26] 0
interdiction[sink_26,sink_9] 0
interdiction[sink_9,sink_18] 0
interdiction[sink_26,sink_4] 1
interdiction[sink_4,sink_20] 0
interdiction[sink_18,sink_6] 0
interdiction[sink_25,innode_8] 0
interdiction[sink_6,sink_7] 0
interdiction[sink_6,sink_22] 0
interdiction[sink_7,sink_24] 0
interdiction[sink_22,sink_1] 0
interdiction[sink_24,sink_21] 0
interdiction[sink_21,sink_12] 0
interdiction[sink_7,sink_5] 0
interdiction[sink_5,sink_17] 1
interdiction[sink_17,sink_4] 0
interdiction[sink_17,sink_8] 0
interdiction[sink_3,sink_23] 0
interdiction[sink_8,sink_20] 1
interdiction[sink_25,sink_20] 0
interdiction[sink_25,sink_15] 0
interdiction[sink_15,sink_29] 0
interdiction[sink_29,sink_28] 0
interdiction[sink_29,sink_2] 0
interdiction[sink_2,sink_15] 0
interdiction[sink_29,innode_7] 0
interdiction[innode_4,sink_19] 0
interdiction[sink_19,innode_3] 0
interdiction[innode_4,innode_5] 0
interdiction[sink_27,innode_5] 0
interdiction[sink_27,sink_19] 0
interdiction[sink_10,sink_11] 0
interdiction[sink_10,innode_2] 0
interdiction[sink_10,innode_3] 0
interdiction[innode_6,sink_25] 0
interdiction[sink_11,innode_1] 0
interdiction[sink_19,innode_2] 0
interdiction[source_3,innode_4] 0
interdiction[source_2,innode_7] 0
interdiction[sink_3,innode_8] 0
WCcheckFlow[source_1,sink_3] 39
WCcheckFlow[innode_1,sink_16] 1
WCcheckFlow[innode_6,sink_13] 13
WCcheckFlow[sink_13,sink_14] 12
WCcheckFlow[sink_14,sink_10] 11
WCcheckFlow[sink_25,sink_26] 11
WCcheckFlow[sink_26,sink_9] 10
WCcheckFlow[sink_9,sink_18] 9
WCcheckFlow[sink_26,sink_4] 0
WCcheckFlow[sink_4,sink_20] -3
WCcheckFlow[sink_18,sink_6] 8
WCcheckFlow[sink_25,innode_8] -36
WCcheckFlow[sink_6,sink_7] 5
WCcheckFlow[sink_6,sink_22] 2
WCcheckFlow[sink_7,sink_24] 3
WCcheckFlow[sink_22,sink_1] 1
WCcheckFlow[sink_24,sink_21] 2
WCcheckFlow[sink_21,sink_12] 1
WCcheckFlow[sink_7,sink_5] 1
WCcheckFlow[sink_5,sink_17] 0
WCcheckFlow[sink_17,sink_4] -2
WCcheckFlow[sink_17,sink_8] 1
WCcheckFlow[sink_3,sink_23] 1
WCcheckFlow[sink_8,sink_20] 0
WCcheckFlow[sink_25,sink_20] 4
WCcheckFlow[sink_25,sink_15] 6
WCcheckFlow[sink_15,sink_29] 5
WCcheckFlow[sink_29,sink_28] 1
WCcheckFlow[sink_29,sink_2] 1
WCcheckFlow[sink_2,sink_15] 0
WCcheckFlow[sink_29,innode_7] 2
WCcheckFlow[innode_4,sink_19] -4
WCcheckFlow[sink_19,innode_3] -5
WCcheckFlow[innode_4,innode_5] 2
WCcheckFlow[sink_27,innode_5] -1
WCcheckFlow[sink_27,sink_19] 0
WCcheckFlow[sink_10,sink_11] 3
WCcheckFlow[sink_10,innode_2] 1
WCcheckFlow[sink_10,innode_3] 6
WCcheckFlow[innode_6,sink_25] -14
WCcheckFlow[sink_11,innode_1] 2
WCcheckFlow[sink_19,innode_2] 0
WCcheckFlow[source_3,innode_4] -1
WCcheckFlow[source_2,innode_7] -1
WCcheckFlow[sink_3,innode_8] 37
